0 31 39
1 32 41
2 38 44
3 44 44
4 37 43
5 33 43
6 27 43
7 37 42
8 28 43
9 35 41
10 37 40
11 37 42
12 38 42
13 36 40
14 31 39
15 33 41
16 40 43
17 35 41
18 29 40
19 33 39
20 27 34
21 30 36
22 18 33
23 34 33
24 27 28
25 25 28
26 13 28
27 25 24
28 8 19
29 17 17
30 11 16
31 4 15
32 7 13
33 6 10
34 3 7
35 2 6
36 4 5
37 5 5
38 2 2
39 2 1
40 2 1
41 2 3
42 2 2
43 1 1
44 1 1

